NAME 
OBJSENSE MAX
ROWS
 N  OBJ
 L  packing[0]
 L  packing[1]
 L  packing[2]
 L  packing[3]
 L  packing[4]
 L  packing[5]
 L  packing[6]
 L  packing[7]
 L  packing[8]
 L  packing[9]
 L  packing[10]
 L  packing[11]
 L  packing[12]
 L  packing[13]
 L  packing[14]
 L  packing[15]
 L  packing[16]
 L  packing[17]
 L  packing[18]
 L  packing[19]
 L  packing[20]
 L  packing[21]
 L  packing[22]
 L  packing[23]
 L  packing[24]
 L  packing[25]
 L  packing[26]
 L  packing[27]
 L  packing[28]
 L  packing[29]
 L  packing[30]
 L  packing[31]
 L  packing[32]
 L  packing[33]
 L  packing[34]
 L  packing[35]
 L  packing[36]
 L  packing[37]
 L  packing[38]
 L  packing[39]
 L  packing[40]
 L  packing[41]
 L  packing[42]
 L  packing[43]
 L  packing[44]
 L  packing[45]
 L  packing[46]
 L  packing[47]
 L  packing[48]
 L  packing[49]
 L  R58     
COLUMNS
    MARKER    'MARKER'                 'INTORG'
    x[1]      OBJ       46
    x[1]      packing[0]  68
    x[1]      packing[2]  143
    x[1]      packing[3]  165
    x[1]      packing[4]  114
    x[1]      packing[5]  156
    x[1]      packing[7]  50
    x[1]      packing[8]  20
    x[1]      packing[10]  94
    x[1]      packing[11]  111
    x[1]      packing[12]  37
    x[1]      packing[13]  74
    x[1]      packing[17]  60
    x[1]      packing[18]  145
    x[1]      packing[19]  13
    x[1]      packing[20]  20
    x[1]      packing[22]  33
    x[1]      packing[23]  35
    x[1]      packing[25]  121
    x[1]      packing[28]  150
    x[1]      packing[29]  135
    x[1]      packing[31]  161
    x[1]      packing[33]  87
    x[1]      packing[34]  189
    x[1]      packing[35]  24
    x[1]      packing[37]  100
    x[1]      packing[38]  22
    x[1]      packing[39]  55
    x[1]      packing[40]  88
    x[1]      packing[41]  95
    x[1]      packing[43]  42
    x[1]      packing[45]  175
    x[1]      packing[46]  181
    x[1]      packing[48]  43
    x[2]      OBJ       193
    x[2]      packing[0]  94
    x[2]      packing[1]  92
    x[2]      packing[3]  110
    x[2]      packing[4]  182
    x[2]      packing[6]  132
    x[2]      packing[7]  2
    x[2]      packing[8]  140
    x[2]      packing[9]  156
    x[2]      packing[10]  5
    x[2]      packing[11]  167
    x[2]      packing[12]  73
    x[2]      packing[13]  192
    x[2]      packing[14]  188
    x[2]      packing[15]  55
    x[2]      packing[16]  91
    x[2]      packing[18]  66
    x[2]      packing[19]  15
    x[2]      packing[20]  105
    x[2]      packing[21]  190
    x[2]      packing[22]  48
    x[2]      packing[24]  106
    x[2]      packing[25]  2
    x[2]      packing[29]  194
    x[2]      packing[30]  129
    x[2]      packing[33]  176
    x[2]      packing[34]  84
    x[2]      packing[35]  127
    x[2]      packing[38]  103
    x[2]      packing[40]  68
    x[2]      packing[41]  28
    x[2]      packing[43]  165
    x[2]      packing[44]  53
    x[2]      packing[45]  152
    x[3]      OBJ       19
    x[3]      packing[0]  6
    x[3]      packing[1]  56
    x[3]      packing[2]  155
    x[3]      packing[3]  26
    x[3]      packing[4]  184
    x[3]      packing[6]  76
    x[3]      packing[7]  155
    x[3]      packing[8]  141
    x[3]      packing[11]  135
    x[3]      packing[13]  69
    x[3]      packing[14]  107
    x[3]      packing[15]  164
    x[3]      packing[16]  101
    x[3]      packing[17]  156
    x[3]      packing[18]  191
    x[3]      packing[19]  51
    x[3]      packing[20]  118
    x[3]      packing[21]  134
    x[3]      packing[24]  79
    x[3]      packing[25]  185
    x[3]      packing[26]  53
    x[3]      packing[27]  94
    x[3]      packing[28]  135
    x[3]      packing[30]  100
    x[3]      packing[35]  6
    x[3]      packing[36]  17
    x[3]      packing[38]  112
    x[3]      packing[39]  143
    x[3]      packing[40]  180
    x[3]      packing[41]  138
    x[3]      packing[42]  45
    x[3]      packing[43]  87
    x[3]      packing[45]  171
    x[3]      packing[46]  130
    x[3]      packing[47]  136
    x[3]      packing[48]  140
    x[3]      packing[49]  71
    x[4]      OBJ       98
    x[4]      packing[0]  153
    x[4]      packing[1]  7
    x[4]      packing[3]  116
    x[4]      packing[4]  53
    x[4]      packing[5]  4
    x[4]      packing[6]  164
    x[4]      packing[8]  19
    x[4]      packing[10]  76
    x[4]      packing[11]  162
    x[4]      packing[12]  48
    x[4]      packing[14]  28
    x[4]      packing[15]  180
    x[4]      packing[16]  100
    x[4]      packing[17]  52
    x[4]      packing[18]  71
    x[4]      packing[20]  45
    x[4]      packing[23]  86
    x[4]      packing[24]  98
    x[4]      packing[25]  117
    x[4]      packing[26]  22
    x[4]      packing[27]  78
    x[4]      packing[29]  162
    x[4]      packing[30]  4
    x[4]      packing[31]  147
    x[4]      packing[32]  118
    x[4]      packing[33]  88
    x[4]      packing[34]  86
    x[4]      packing[35]  72
    x[4]      packing[36]  153
    x[4]      packing[38]  57
    x[4]      packing[39]  40
    x[4]      packing[40]  170
    x[4]      packing[42]  154
    x[4]      packing[43]  73
    x[4]      packing[44]  52
    x[4]      packing[45]  109
    x[4]      packing[46]  17
    x[4]      packing[47]  74
    x[4]      packing[49]  151
    x[4]      R58       1
    x[5]      OBJ       15
    x[5]      packing[0]  111
    x[5]      packing[1]  24
    x[5]      packing[2]  12
    x[5]      packing[3]  127
    x[5]      packing[4]  37
    x[5]      packing[5]  97
    x[5]      packing[6]  43
    x[5]      packing[7]  199
    x[5]      packing[8]  51
    x[5]      packing[11]  141
    x[5]      packing[12]  182
    x[5]      packing[13]  8
    x[5]      packing[16]  129
    x[5]      packing[17]  41
    x[5]      packing[20]  139
    x[5]      packing[21]  15
    x[5]      packing[22]  20
    x[5]      packing[23]  127
    x[5]      packing[25]  42
    x[5]      packing[26]  147
    x[5]      packing[28]  113
    x[5]      packing[29]  4
    x[5]      packing[30]  150
    x[5]      packing[31]  87
    x[5]      packing[33]  134
    x[5]      packing[34]  21
    x[5]      packing[35]  94
    x[5]      packing[36]  74
    x[5]      packing[37]  148
    x[5]      packing[38]  130
    x[5]      packing[39]  183
    x[5]      packing[41]  129
    x[5]      packing[42]  165
    x[5]      packing[43]  141
    x[5]      packing[45]  179
    x[5]      packing[46]  151
    x[5]      packing[47]  133
    x[5]      packing[49]  14
    x[6]      OBJ       71
    x[6]      packing[1]  107
    x[6]      packing[3]  80
    x[6]      packing[4]  149
    x[6]      packing[6]  86
    x[6]      packing[7]  74
    x[6]      packing[9]  46
    x[6]      packing[10]  18
    x[6]      packing[11]  105
    x[6]      packing[13]  1
    x[6]      packing[14]  96
    x[6]      packing[15]  138
    x[6]      packing[16]  125
    x[6]      packing[17]  118
    x[6]      packing[18]  16
    x[6]      packing[20]  106
    x[6]      packing[21]  35
    x[6]      packing[22]  190
    x[6]      packing[23]  120
    x[6]      packing[24]  24
    x[6]      packing[25]  124
    x[6]      packing[26]  41
    x[6]      packing[28]  97
    x[6]      packing[29]  131
    x[6]      packing[30]  53
    x[6]      packing[31]  96
    x[6]      packing[32]  123
    x[6]      packing[34]  89
    x[6]      packing[35]  22
    x[6]      packing[36]  37
    x[6]      packing[37]  129
    x[6]      packing[38]  140
    x[6]      packing[39]  129
    x[6]      packing[40]  64
    x[6]      packing[41]  177
    x[6]      packing[42]  151
    x[6]      packing[43]  149
    x[6]      packing[44]  21
    x[6]      packing[47]  108
    x[6]      packing[48]  37
    x[7]      OBJ       90
    x[7]      packing[0]  84
    x[7]      packing[2]  13
    x[7]      packing[3]  131
    x[7]      packing[4]  114
    x[7]      packing[6]  53
    x[7]      packing[7]  166
    x[7]      packing[8]  52
    x[7]      packing[9]  52
    x[7]      packing[10]  173
    x[7]      packing[12]  93
    x[7]      packing[13]  157
    x[7]      packing[14]  18
    x[7]      packing[15]  48
    x[7]      packing[16]  181
    x[7]      packing[17]  157
    x[7]      packing[19]  33
    x[7]      packing[21]  93
    x[7]      packing[22]  105
    x[7]      packing[23]  181
    x[7]      packing[25]  71
    x[7]      packing[26]  192
    x[7]      packing[27]  13
    x[7]      packing[28]  138
    x[7]      packing[30]  85
    x[7]      packing[31]  109
    x[7]      packing[32]  70
    x[7]      packing[33]  4
    x[7]      packing[34]  190
    x[7]      packing[36]  142
    x[7]      packing[38]  89
    x[7]      packing[39]  123
    x[7]      packing[40]  176
    x[7]      packing[43]  68
    x[7]      packing[44]  80
    x[7]      packing[46]  199
    x[7]      packing[47]  87
    x[7]      packing[48]  147
    x[7]      packing[49]  59
    x[8]      OBJ       149
    x[8]      packing[0]  57
    x[8]      packing[2]  35
    x[8]      packing[3]  183
    x[8]      packing[4]  161
    x[8]      packing[5]  4
    x[8]      packing[7]  2
    x[8]      packing[8]  145
    x[8]      packing[12]  10
    x[8]      packing[13]  151
    x[8]      packing[14]  39
    x[8]      packing[15]  169
    x[8]      packing[16]  146
    x[8]      packing[17]  150
    x[8]      packing[18]  155
    x[8]      packing[19]  91
    x[8]      packing[20]  170
    x[8]      packing[21]  131
    x[8]      packing[22]  19
    x[8]      packing[23]  115
    x[8]      packing[24]  91
    x[8]      packing[25]  135
    x[8]      packing[26]  119
    x[8]      packing[27]  69
    x[8]      packing[30]  115
    x[8]      packing[31]  147
    x[8]      packing[33]  94
    x[8]      packing[34]  51
    x[8]      packing[35]  11
    x[8]      packing[36]  93
    x[8]      packing[38]  171
    x[8]      packing[39]  191
    x[8]      packing[40]  47
    x[8]      packing[42]  45
    x[8]      packing[43]  130
    x[8]      packing[44]  31
    x[8]      packing[45]  50
    x[8]      packing[47]  123
    x[8]      packing[48]  49
    x[8]      packing[49]  3
    x[9]      OBJ       7
    x[9]      packing[0]  132
    x[9]      packing[2]  198
    x[9]      packing[3]  62
    x[9]      packing[5]  59
    x[9]      packing[6]  126
    x[9]      packing[7]  189
    x[9]      packing[9]  166
    x[9]      packing[10]  171
    x[9]      packing[11]  116
    x[9]      packing[13]  111
    x[9]      packing[14]  75
    x[9]      packing[15]  111
    x[9]      packing[16]  43
    x[9]      packing[17]  19
    x[9]      packing[18]  98
    x[9]      packing[19]  51
    x[9]      packing[20]  50
    x[9]      packing[22]  141
    x[9]      packing[24]  195
    x[9]      packing[25]  139
    x[9]      packing[26]  160
    x[9]      packing[27]  92
    x[9]      packing[28]  8
    x[9]      packing[29]  91
    x[9]      packing[30]  193
    x[9]      packing[31]  93
    x[9]      packing[32]  151
    x[9]      packing[33]  72
    x[9]      packing[34]  153
    x[9]      packing[36]  101
    x[9]      packing[37]  43
    x[9]      packing[38]  119
    x[9]      packing[39]  58
    x[9]      packing[40]  119
    x[9]      packing[41]  187
    x[9]      packing[42]  7
    x[9]      packing[43]  104
    x[9]      packing[44]  94
    x[9]      packing[45]  183
    x[9]      packing[46]  144
    x[9]      packing[48]  146
    x[9]      packing[49]  134
    x[10]     OBJ       146
    x[10]     packing[0]  94
    x[10]     packing[2]  54
    x[10]     packing[3]  78
    x[10]     packing[5]  4
    x[10]     packing[6]  6
    x[10]     packing[7]  23
    x[10]     packing[8]  167
    x[10]     packing[10]  14
    x[10]     packing[12]  134
    x[10]     packing[13]  174
    x[10]     packing[15]  59
    x[10]     packing[16]  103
    x[10]     packing[17]  173
    x[10]     packing[19]  60
    x[10]     packing[20]  193
    x[10]     packing[21]  163
    x[10]     packing[22]  194
    x[10]     packing[23]  12
    x[10]     packing[25]  74
    x[10]     packing[26]  177
    x[10]     packing[27]  87
    x[10]     packing[28]  103
    x[10]     packing[29]  144
    x[10]     packing[31]  145
    x[10]     packing[32]  28
    x[10]     packing[33]  68
    x[10]     packing[34]  147
    x[10]     packing[35]  15
    x[10]     packing[36]  64
    x[10]     packing[39]  64
    x[10]     packing[40]  6
    x[10]     packing[41]  38
    x[10]     packing[42]  153
    x[10]     packing[44]  191
    x[10]     packing[45]  121
    x[10]     packing[46]  108
    x[10]     packing[48]  74
    x[10]     packing[49]  109
    x[10]     R58       1
    x[11]     OBJ       57
    x[11]     packing[1]  128
    x[11]     packing[2]  51
    x[11]     packing[4]  168
    x[11]     packing[6]  87
    x[11]     packing[7]  44
    x[11]     packing[9]  177
    x[11]     packing[10]  9
    x[11]     packing[11]  163
    x[11]     packing[12]  114
    x[11]     packing[14]  101
    x[11]     packing[16]  150
    x[11]     packing[17]  168
    x[11]     packing[18]  88
    x[11]     packing[19]  135
    x[11]     packing[22]  25
    x[11]     packing[23]  44
    x[11]     packing[24]  135
    x[11]     packing[25]  99
    x[11]     packing[29]  132
    x[11]     packing[30]  150
    x[11]     packing[32]  15
    x[11]     packing[33]  128
    x[11]     packing[35]  155
    x[11]     packing[36]  6
    x[11]     packing[38]  77
    x[11]     packing[39]  189
    x[11]     packing[40]  79
    x[11]     packing[41]  89
    x[11]     packing[42]  81
    x[11]     packing[43]  101
    x[11]     packing[44]  188
    x[11]     packing[46]  115
    x[11]     packing[47]  165
    x[11]     packing[48]  178
    x[12]     OBJ       69
    x[12]     packing[1]  177
    x[12]     packing[2]  103
    x[12]     packing[3]  163
    x[12]     packing[5]  108
    x[12]     packing[6]  124
    x[12]     packing[7]  182
    x[12]     packing[8]  72
    x[12]     packing[9]  96
    x[12]     packing[10]  76
    x[12]     packing[11]  57
    x[12]     packing[12]  49
    x[12]     packing[13]  197
    x[12]     packing[15]  26
    x[12]     packing[16]  138
    x[12]     packing[17]  133
    x[12]     packing[18]  119
    x[12]     packing[19]  34
    x[12]     packing[20]  101
    x[12]     packing[22]  53
    x[12]     packing[23]  125
    x[12]     packing[25]  80
    x[12]     packing[27]  40
    x[12]     packing[28]  79
    x[12]     packing[29]  57
    x[12]     packing[30]  76
    x[12]     packing[31]  72
    x[12]     packing[33]  144
    x[12]     packing[34]  122
    x[12]     packing[35]  97
    x[12]     packing[36]  119
    x[12]     packing[37]  26
    x[12]     packing[38]  1
    x[12]     packing[41]  146
    x[12]     packing[42]  197
    x[12]     packing[43]  130
    x[12]     packing[46]  66
    x[12]     packing[47]  69
    x[12]     packing[48]  147
    x[12]     packing[49]  92
    x[13]     OBJ       29
    x[13]     packing[0]  164
    x[13]     packing[1]  51
    x[13]     packing[3]  125
    x[13]     packing[5]  185
    x[13]     packing[6]  69
    x[13]     packing[7]  130
    x[13]     packing[9]  91
    x[13]     packing[10]  50
    x[13]     packing[11]  120
    x[13]     packing[12]  78
    x[13]     packing[13]  26
    x[13]     packing[15]  71
    x[13]     packing[16]  15
    x[13]     packing[17]  134
    x[13]     packing[18]  44
    x[13]     packing[19]  23
    x[13]     packing[20]  60
    x[13]     packing[21]  51
    x[13]     packing[22]  121
    x[13]     packing[23]  136
    x[13]     packing[24]  124
    x[13]     packing[26]  71
    x[13]     packing[27]  96
    x[13]     packing[28]  122
    x[13]     packing[29]  110
    x[13]     packing[30]  34
    x[13]     packing[31]  8
    x[13]     packing[32]  166
    x[13]     packing[33]  94
    x[13]     packing[34]  186
    x[13]     packing[35]  41
    x[13]     packing[36]  34
    x[13]     packing[37]  13
    x[13]     packing[38]  9
    x[13]     packing[39]  7
    x[13]     packing[40]  38
    x[13]     packing[42]  59
    x[13]     packing[43]  134
    x[13]     packing[44]  151
    x[13]     packing[45]  159
    x[13]     packing[46]  1
    x[13]     packing[47]  125
    x[13]     packing[48]  16
    x[14]     OBJ       24
    x[14]     packing[0]  73
    x[14]     packing[3]  183
    x[14]     packing[4]  173
    x[14]     packing[6]  74
    x[14]     packing[7]  84
    x[14]     packing[8]  136
    x[14]     packing[10]  28
    x[14]     packing[11]  162
    x[14]     packing[12]  97
    x[14]     packing[13]  127
    x[14]     packing[14]  172
    x[14]     packing[16]  151
    x[14]     packing[18]  191
    x[14]     packing[19]  32
    x[14]     packing[20]  37
    x[14]     packing[21]  10
    x[14]     packing[22]  109
    x[14]     packing[24]  62
    x[14]     packing[25]  129
    x[14]     packing[26]  118
    x[14]     packing[27]  164
    x[14]     packing[29]  83
    x[14]     packing[30]  188
    x[14]     packing[31]  196
    x[14]     packing[32]  15
    x[14]     packing[33]  169
    x[14]     packing[34]  27
    x[14]     packing[35]  33
    x[14]     packing[36]  54
    x[14]     packing[37]  47
    x[14]     packing[38]  149
    x[14]     packing[41]  162
    x[14]     packing[42]  109
    x[14]     packing[44]  15
    x[14]     packing[47]  112
    x[14]     packing[48]  150
    x[14]     packing[49]  129
    x[15]     OBJ       178
    x[15]     packing[0]  46
    x[15]     packing[1]  145
    x[15]     packing[2]  22
    x[15]     packing[3]  62
    x[15]     packing[4]  112
    x[15]     packing[6]  142
    x[15]     packing[8]  45
    x[15]     packing[9]  47
    x[15]     packing[11]  61
    x[15]     packing[12]  4
    x[15]     packing[13]  57
    x[15]     packing[15]  77
    x[15]     packing[16]  152
    x[15]     packing[17]  179
    x[15]     packing[18]  103
    x[15]     packing[19]  119
    x[15]     packing[20]  152
    x[15]     packing[22]  20
    x[15]     packing[24]  149
    x[15]     packing[25]  133
    x[15]     packing[26]  6
    x[15]     packing[27]  70
    x[15]     packing[28]  165
    x[15]     packing[31]  159
    x[15]     packing[32]  85
    x[15]     packing[35]  10
    x[15]     packing[36]  145
    x[15]     packing[37]  184
    x[15]     packing[39]  199
    x[15]     packing[40]  67
    x[15]     packing[42]  128
    x[15]     packing[45]  170
    x[15]     packing[46]  115
    x[15]     packing[49]  3
    x[15]     R58       1
    x[16]     OBJ       167
    x[16]     packing[0]  135
    x[16]     packing[1]  118
    x[16]     packing[2]  15
    x[16]     packing[3]  160
    x[16]     packing[5]  41
    x[16]     packing[6]  52
    x[16]     packing[7]  179
    x[16]     packing[8]  12
    x[16]     packing[9]  12
    x[16]     packing[10]  5
    x[16]     packing[11]  32
    x[16]     packing[12]  5
    x[16]     packing[15]  182
    x[16]     packing[16]  146
    x[16]     packing[17]  47
    x[16]     packing[19]  102
    x[16]     packing[20]  154
    x[16]     packing[22]  29
    x[16]     packing[25]  30
    x[16]     packing[31]  78
    x[16]     packing[32]  131
    x[16]     packing[33]  114
    x[16]     packing[34]  192
    x[16]     packing[35]  172
    x[16]     packing[36]  161
    x[16]     packing[37]  184
    x[16]     packing[38]  170
    x[16]     packing[39]  149
    x[16]     packing[42]  102
    x[16]     packing[43]  45
    x[16]     packing[45]  70
    x[16]     packing[47]  69
    x[16]     packing[49]  176
    x[16]     R58       1
    x[17]     OBJ       98
    x[17]     packing[0]  20
    x[17]     packing[1]  112
    x[17]     packing[2]  133
    x[17]     packing[3]  167
    x[17]     packing[4]  60
    x[17]     packing[5]  81
    x[17]     packing[6]  154
    x[17]     packing[8]  155
    x[17]     packing[9]  83
    x[17]     packing[10]  11
    x[17]     packing[11]  167
    x[17]     packing[12]  112
    x[17]     packing[13]  108
    x[17]     packing[14]  44
    x[17]     packing[15]  145
    x[17]     packing[16]  177
    x[17]     packing[17]  57
    x[17]     packing[18]  172
    x[17]     packing[19]  83
    x[17]     packing[20]  94
    x[17]     packing[21]  4
    x[17]     packing[23]  59
    x[17]     packing[24]  194
    x[17]     packing[25]  15
    x[17]     packing[26]  179
    x[17]     packing[27]  6
    x[17]     packing[28]  92
    x[17]     packing[29]  97
    x[17]     packing[31]  197
    x[17]     packing[32]  20
    x[17]     packing[33]  155
    x[17]     packing[34]  105
    x[17]     packing[37]  72
    x[17]     packing[38]  118
    x[17]     packing[39]  82
    x[17]     packing[40]  196
    x[17]     packing[41]  145
    x[17]     packing[42]  26
    x[17]     packing[43]  82
    x[17]     packing[44]  115
    x[17]     packing[45]  20
    x[17]     packing[46]  193
    x[17]     packing[47]  183
    x[17]     packing[48]  117
    x[18]     OBJ       93
    x[18]     packing[0]  72
    x[18]     packing[1]  177
    x[18]     packing[2]  4
    x[18]     packing[3]  5
    x[18]     packing[4]  34
    x[18]     packing[5]  185
    x[18]     packing[6]  145
    x[18]     packing[7]  189
    x[18]     packing[8]  181
    x[18]     packing[9]  49
    x[18]     packing[11]  53
    x[18]     packing[12]  198
    x[18]     packing[14]  129
    x[18]     packing[15]  114
    x[18]     packing[16]  78
    x[18]     packing[18]  10
    x[18]     packing[19]  94
    x[18]     packing[20]  187
    x[18]     packing[21]  5
    x[18]     packing[22]  64
    x[18]     packing[23]  76
    x[18]     packing[25]  199
    x[18]     packing[27]  98
    x[18]     packing[28]  179
    x[18]     packing[29]  42
    x[18]     packing[30]  62
    x[18]     packing[31]  133
    x[18]     packing[33]  99
    x[18]     packing[35]  156
    x[18]     packing[37]  108
    x[18]     packing[38]  116
    x[18]     packing[39]  48
    x[18]     packing[40]  64
    x[18]     packing[41]  106
    x[18]     packing[42]  172
    x[18]     packing[44]  21
    x[18]     packing[45]  25
    x[18]     packing[46]  196
    x[18]     packing[47]  84
    x[18]     packing[48]  129
    x[18]     packing[49]  15
    x[19]     OBJ       62
    x[19]     packing[0]  147
    x[19]     packing[1]  93
    x[19]     packing[2]  165
    x[19]     packing[3]  137
    x[19]     packing[4]  72
    x[19]     packing[5]  148
    x[19]     packing[6]  80
    x[19]     packing[7]  20
    x[19]     packing[10]  81
    x[19]     packing[12]  134
    x[19]     packing[13]  186
    x[19]     packing[14]  144
    x[19]     packing[15]  57
    x[19]     packing[16]  127
    x[19]     packing[17]  29
    x[19]     packing[18]  104
    x[19]     packing[20]  71
    x[19]     packing[21]  96
    x[19]     packing[22]  35
    x[19]     packing[24]  190
    x[19]     packing[25]  170
    x[19]     packing[26]  197
    x[19]     packing[27]  13
    x[19]     packing[28]  49
    x[19]     packing[31]  6
    x[19]     packing[32]  37
    x[19]     packing[33]  26
    x[19]     packing[34]  177
    x[19]     packing[35]  120
    x[19]     packing[37]  65
    x[19]     packing[38]  150
    x[19]     packing[40]  67
    x[19]     packing[41]  178
    x[19]     packing[42]  125
    x[19]     packing[44]  141
    x[19]     packing[45]  37
    x[19]     packing[46]  89
    x[19]     packing[48]  125
    x[20]     OBJ       78
    x[20]     packing[0]  131
    x[20]     packing[1]  183
    x[20]     packing[2]  52
    x[20]     packing[3]  79
    x[20]     packing[5]  174
    x[20]     packing[6]  143
    x[20]     packing[7]  98
    x[20]     packing[9]  85
    x[20]     packing[10]  36
    x[20]     packing[11]  28
    x[20]     packing[12]  13
    x[20]     packing[14]  10
    x[20]     packing[15]  122
    x[20]     packing[16]  83
    x[20]     packing[17]  183
    x[20]     packing[19]  21
    x[20]     packing[21]  57
    x[20]     packing[22]  4
    x[20]     packing[23]  116
    x[20]     packing[24]  40
    x[20]     packing[25]  40
    x[20]     packing[26]  81
    x[20]     packing[27]  84
    x[20]     packing[28]  87
    x[20]     packing[30]  66
    x[20]     packing[31]  97
    x[20]     packing[32]  165
    x[20]     packing[33]  124
    x[20]     packing[34]  45
    x[20]     packing[35]  55
    x[20]     packing[36]  107
    x[20]     packing[37]  29
    x[20]     packing[39]  133
    x[20]     packing[40]  127
    x[20]     packing[41]  5
    x[20]     packing[42]  129
    x[20]     packing[44]  36
    x[20]     packing[45]  8
    x[20]     packing[46]  144
    x[20]     packing[47]  3
    x[20]     packing[48]  78
    x[20]     packing[49]  146
    x[20]     R58       1
    MARKER    'MARKER'                 'INTEND'
RHS
    RHS1      packing[0]  794
    RHS1      packing[1]  735
    RHS1      packing[2]  578
    RHS1      packing[3]  1080
    RHS1      packing[4]  807
    RHS1      packing[5]  623
    RHS1      packing[6]  878
    RHS1      packing[7]  893
    RHS1      packing[8]  668
    RHS1      packing[9]  530
    RHS1      packing[10]  424
    RHS1      packing[11]  890
    RHS1      packing[12]  691
    RHS1      packing[13]  819
    RHS1      packing[14]  576
    RHS1      packing[15]  859
    RHS1      packing[16]  1118
    RHS1      packing[17]  928
    RHS1      packing[18]  787
    RHS1      packing[19]  479
    RHS1      packing[20]  901
    RHS1      packing[21]  492
    RHS1      packing[22]  605
    RHS1      packing[23]  616
    RHS1      packing[24]  744
    RHS1      packing[25]  953
    RHS1      packing[26]  782
    RHS1      packing[27]  502
    RHS1      packing[28]  759
    RHS1      packing[29]  691
    RHS1      packing[30]  703
    RHS1      packing[31]  966
    RHS1      packing[32]  562
    RHS1      packing[33]  888
    RHS1      packing[34]  932
    RHS1      packing[35]  605
    RHS1      packing[36]  654
    RHS1      packing[37]  574
    RHS1      packing[38]  867
    RHS1      packing[39]  897
    RHS1      packing[40]  778
    RHS1      packing[41]  812
    RHS1      packing[42]  924
    RHS1      packing[43]  726
    RHS1      packing[44]  595
    RHS1      packing[45]  815
    RHS1      packing[46]  925
    RHS1      packing[47]  736
    RHS1      packing[48]  788
    RHS1      packing[49]  551
    RHS1      R58       4
BOUNDS
 BV BND1      x[1]    
 BV BND1      x[2]    
 BV BND1      x[3]    
 BV BND1      x[4]    
 BV BND1      x[5]    
 BV BND1      x[6]    
 BV BND1      x[7]    
 BV BND1      x[8]    
 BV BND1      x[9]    
 BV BND1      x[10]   
 BV BND1      x[11]   
 BV BND1      x[12]   
 BV BND1      x[13]   
 BV BND1      x[14]   
 BV BND1      x[15]   
 BV BND1      x[16]   
 BV BND1      x[17]   
 BV BND1      x[18]   
 BV BND1      x[19]   
 BV BND1      x[20]   
ENDATA
